====================================================================================================================
File name: 100_20_23_9_D1.def
Creation date: Tue Nov 25 16:29:03 CET 2014
Website: http://imopse.ii.pwr.edu.pl/
Reference:
Myszkowski P. B., Skowronski M. E., Olech L., Oslizlo K.,
Hybrid Ant Colony Optimization in solving Multi-Skill Resource-Constrained Project Scheduling Problem,
Soft Computing, DOI: DOI 10.1007/s00500-014-1455-x
====================================================================================================================
====================================================================================================================
=====================================================IMPORTANT======================================================
====================================================================================================================
Lacking task identifiers is a result of transforming definitions from MPP to DEF format.
Those lacking ids reflects to the summary tasks, available in MS Project definition that have been removed here.
 Therefore number of precedence relations increased, as relations between summary task had to be multiplied
to all tasks that were included into summary ones. Both file definition formats are compatible with each other.
====================================================================================================================
The file is free from calendar restrictions, typical for .mpp format
====================================================================================================================
General characteristics:
Tasks: 84
Resources: 20
Precedence relations: 31
Number of skill types: 9
====================================================================================================================
ResourceID 	 Salary 	 Skills
1	 	 	31.0	 	 Q3: 2 	  Q0: 2 	  Q5: 0 	  Q2: 1 	  Q6: 1 	  Q7: 0
2	 	 	12.8	 	 Q8: 0 	  Q1: 2 	  Q7: 2 	  Q5: 0 	  Q6: 2 	  Q3: 0
3	 	 	13.0	 	 Q8: 1 	  Q5: 0 	  Q7: 0 	  Q3: 0 	  Q6: 1 	  Q1: 0
4	 	 	36.8	 	 Q6: 1 	  Q4: 0 	  Q0: 2 	  Q8: 2 	  Q1: 0 	  Q5: 2
5	 	 	23.5	 	 Q0: 0 	  Q5: 2 	  Q7: 0 	  Q6: 2 	  Q8: 1 	  Q1: 2
6	 	 	11.1	 	 Q7: 2 	  Q5: 1 	  Q1: 1 	  Q6: 2 	  Q8: 0 	  Q2: 0
7	 	 	25.3	 	 Q2: 1 	  Q7: 0 	  Q6: 1 	  Q3: 0 	  Q8: 0 	  Q4: 0
8	 	 	29.6	 	 Q1: 2 	  Q5: 0 	  Q8: 2 	  Q3: 1 	  Q0: 0 	  Q6: 2
9	 	 	17.9	 	 Q3: 2 	  Q2: 2 	  Q5: 1 	  Q0: 1 	  Q6: 2 	  Q4: 1
10	 	 	21.0	 	 Q5: 2 	  Q7: 1 	  Q8: 2 	  Q3: 1 	  Q0: 0 	  Q1: 2
11	 	 	22.4	 	 Q5: 0 	  Q0: 1 	  Q2: 0 	  Q3: 1 	  Q4: 2 	  Q7: 2
12	 	 	17.2	 	 Q8: 0 	  Q5: 1 	  Q7: 1 	  Q3: 0 	  Q1: 2 	  Q0: 2
13	 	 	15.9	 	 Q6: 2 	  Q0: 0 	  Q5: 1 	  Q4: 0 	  Q8: 0 	  Q7: 1
14	 	 	24.6	 	 Q2: 0 	  Q1: 1 	  Q7: 0 	  Q8: 1 	  Q6: 1 	  Q3: 1
15	 	 	28.8	 	 Q8: 1 	  Q6: 2 	  Q2: 2 	  Q4: 0 	  Q3: 2 	  Q1: 0
16	 	 	33.1	 	 Q8: 0 	  Q2: 1 	  Q3: 1 	  Q7: 0 	  Q6: 0 	  Q4: 2
17	 	 	14.1	 	 Q5: 2 	  Q4: 2 	  Q2: 0 	  Q0: 0 	  Q8: 1 	  Q7: 1
18	 	 	14.3	 	 Q3: 0 	  Q6: 2 	  Q0: 0 	  Q5: 2 	  Q4: 0 	  Q2: 2
19	 	 	31.2	 	 Q4: 1 	  Q2: 1 	  Q1: 2 	  Q6: 0 	  Q8: 1 	  Q0: 0
20	 	 	39.1	 	 Q8: 0 	  Q4: 2 	  Q0: 0 	  Q1: 0 	  Q6: 2 	  Q7: 2
====================================================================================================================
TaskID 	 Duration 	 Skill 	 Predecessor IDs
1	 	 	19	 Q7: 0
2	 	 	35	 Q4: 1
3	 	 	21	 Q8: 1
4	 	 	20	 Q0: 0	 	2
6	 	 	22	 Q1: 2	 	4
7	 	 	15	 Q1: 1	 	4
8	 	 	18	 Q1: 2	 	4
9	 	 	39	 Q6: 1
10	 	 	16	 Q0: 0
12	 	 	18	 Q0: 2
14	 	 	29	 Q5: 0
15	 	 	37	 Q8: 1
16	 	 	34	 Q8: 0	 	4
17	 	 	19	 Q0: 0	 	4
18	 	 	19	 Q1: 2
20	 	 	9	 Q7: 1
23	 	 	33	 Q2: 2
24	 	 	27	 Q7: 0
25	 	 	9	 Q3: 1	 	6
26	 	 	20	 Q0: 0	 	16
27	 	 	25	 Q4: 1
28	 	 	23	 Q6: 2
29	 	 	18	 Q0: 0	 	28
31	 	 	35	 Q6: 1	 	29
32	 	 	34	 Q7: 2
33	 	 	20	 Q0: 0
34	 	 	24	 Q6: 2	 	33
35	 	 	20	 Q2: 1	 	34
36	 	 	40	 Q1: 1
37	 	 	27	 Q8: 0
39	 	 	39	 Q7: 0
40	 	 	39	 Q3: 1
41	 	 	37	 Q6: 2
42	 	 	24	 Q5: 1	 	25
43	 	 	24	 Q6: 0
44	 	 	17	 Q8: 1
45	 	 	20	 Q2: 2	 	44
46	 	 	21	 Q2: 2	 	45	44
47	 	 	39	 Q7: 1
48	 	 	35	 Q6: 2
49	 	 	25	 Q5: 0
50	 	 	26	 Q5: 1
51	 	 	17	 Q0: 0
52	 	 	38	 Q8: 1
53	 	 	23	 Q6: 2
55	 	 	25	 Q8: 0	 	53
56	 	 	35	 Q0: 0	 	55
57	 	 	36	 Q3: 1
58	 	 	37	 Q1: 0
59	 	 	31	 Q3: 0	 	47
60	 	 	37	 Q1: 2
61	 	 	13	 Q3: 0	 	56
62	 	 	35	 Q7: 0	 	61
63	 	 	10	 Q6: 1	 	62
65	 	 	28	 Q2: 2	 	62
66	 	 	40	 Q3: 1	 	62
67	 	 	38	 Q8: 1	 	62
69	 	 	32	 Q0: 0
70	 	 	36	 Q6: 2
71	 	 	20	 Q6: 0
73	 	 	37	 Q5: 2
74	 	 	39	 Q8: 2
76	 	 	18	 Q7: 1
77	 	 	27	 Q0: 0	 	76
79	 	 	36	 Q1: 2	 	77
80	 	 	31	 Q8: 1
81	 	 	38	 Q4: 0
82	 	 	29	 Q4: 0
84	 	 	37	 Q4: 1
85	 	 	31	 Q4: 0	 	63
87	 	 	19	 Q3: 1
88	 	 	39	 Q7: 2
89	 	 	40	 Q4: 2
90	 	 	20	 Q3: 0
91	 	 	36	 Q6: 0
92	 	 	39	 Q5: 2
93	 	 	21	 Q3: 1
94	 	 	31	 Q3: 0
95	 	 	38	 Q0: 0
96	 	 	19	 Q8: 2
97	 	 	14	 Q8: 1	 	88	95
98	 	 	35	 Q8: 2	 	95
99	 	 	12	 Q4: 2
100	 	 	14	 Q0: 0
====================================================================================================================
